p cnf 150 360
-59 10 -47 0
-119 11 74 0
104 -73 98 0
68 119 38 0
67 -88 132 0
69 -42 98 0
139 -58 -140 0
2 -118 -38 0
10 -83 -4 0
-27 97 144 0
136 24 34 0
-149 -126 87 0
52 108 35 0
-10 -110 -125 0
64 -147 -138 0
114 -52 -21 0
-17 -145 -11 0
-66 -75 -138 0
-58 15 86 0
-122 99 -126 0
41 -139 54 0
147 -59 -101 0
-7 68 -150 0
78 -64 147 0
116 109 -93 0
43 -149 69 0
110 87 -140 0
101 -71 36 0
-99 135 -26 0
41 -82 -89 0
-112 63 -16 0
-49 -116 -74 0
-6 121 127 0
-85 -25 93 0
24 63 59 0
148 24 -65 0
-92 131 74 0
145 -86 -67 0
-88 106 -140 0
-110 92 -60 0
-135 -18 74 0
3 137 -149 0
63 89 5 0
82 97 50 0
-148 -32 128 0
121 59 -119 0
-122 -52 -105 0
20 26 -36 0
-35 -90 -12 0
51 -98 -145 0
-116 101 -61 0
-20 -13 -62 0
-56 -35 135 0
21 -45 -27 0
15 131 115 0
-99 87 -96 0
-101 -37 -12 0
89 -22 35 0
-72 29 -31 0
-7 86 129 0
34 -27 113 0
61 119 -9 0
-112 88 70 0
48 24 69 0
36 112 -59 0
-119 36 67 0
47 126 97 0
62 75 27 0
38 -9 139 0
-41 -135 -129 0
48 -131 145 0
130 -44 3 0
124 49 -77 0
-34 -131 -47 0
44 130 82 0
-99 -34 -147 0
-103 149 66 0
-38 9 86 0
-14 5 55 0
32 -147 -57 0
1 56 -27 0
109 87 -133 0
-13 -131 -82 0
-19 -57 -31 0
-148 -96 -94 0
-119 -44 49 0
56 -51 -26 0
-134 -22 73 0
73 -46 -112 0
102 -124 -74 0
-70 -106 -76 0
-56 101 16 0
148 -95 -49 0
-3 -125 -33 0
-2 34 132 0
14 148 50 0
59 -111 -20 0
-4 1 86 0
-26 135 61 0
14 40 50 0
65 -120 147 0
47 148 14 0
-17 45 67 0
65 -110 -88 0
43 73 132 0
14 37 71 0
-119 112 24 0
37 -51 -23 0
-119 115 122 0
67 98 -11 0
-105 -99 145 0
-50 -6 -64 0
75 147 -9 0
-83 82 3 0
-119 66 81 0
-26 -42 145 0
-145 127 29 0
145 -135 61 0
-60 -89 -120 0
-42 120 85 0
117 -111 -103 0
47 62 -135 0
-51 143 12 0
92 106 -109 0
113 52 44 0
-37 112 131 0
106 136 -79 0
-62 -148 -68 0
-78 56 130 0
97 -92 -114 0
-106 -117 82 0
-127 -101 -9 0
57 -7 -41 0
-4 48 -116 0
53 -54 -133 0
-95 126 -87 0
-148 -130 -20 0
16 30 -133 0
7 -52 16 0
-125 111 104 0
-42 -148 135 0
130 37 -149 0
79 84 100 0
-124 54 110 0
8 -78 21 0
-87 -88 130 0
12 112 82 0
12 43 -128 0
113 18 48 0
134 -4 -64 0
-94 -83 -8 0
-61 -49 -113 0
37 -67 -78 0
92 41 117 0
-47 125 -23 0
-120 20 1 0
-58 109 -80 0
67 10 17 0
67 98 -34 0
-135 -48 -98 0
140 -36 144 0
-101 -145 -138 0
75 -42 120 0
48 -41 -139 0
-82 144 -111 0
-87 -150 16 0
-142 -114 -82 0
-93 -143 -129 0
-37 6 33 0
113 -74 -116 0
-84 -26 112 0
-61 62 124 0
132 -19 123 0
25 44 118 0
-12 -86 10 0
121 -55 30 0
104 28 -36 0
81 -114 139 0
-39 -61 43 0
-3 87 66 0
3 -147 -29 0
40 4 -126 0
-50 -137 97 0
-13 -25 139 0
-104 -52 96 0
-28 -56 -81 0
-141 112 73 0
6 -52 101 0
-144 76 -134 0
-49 -86 -38 0
28 44 -57 0
136 -107 -104 0
81 54 -106 0
-9 -47 52 0
145 -123 115 0
52 -121 137 0
13 121 -92 0
124 113 27 0
52 -47 -3 0
-146 -85 24 0
-129 149 103 0
-71 11 -70 0
96 -35 -106 0
-6 139 127 0
24 -28 74 0
-34 -125 75 0
-23 104 80 0
127 -105 26 0
-93 -24 28 0
-137 79 -63 0
119 129 -23 0
66 -76 99 0
146 62 51 0
141 -27 53 0
34 -35 123 0
-101 90 -7 0
44 28 64 0
-81 76 -106 0
-9 38 90 0
-122 -1 -121 0
-21 25 149 0
-130 17 -27 0
-36 -78 91 0
-22 -131 83 0
-109 67 -21 0
-111 31 80 0
-21 -133 -68 0
-83 20 3 0
27 25 -63 0
94 -139 17 0
-59 16 79 0
-136 -60 32 0
28 34 -143 0
134 118 -106 0
139 -14 -114 0
-142 41 -101 0
86 1 76 0
112 28 -63 0
145 -118 67 0
-121 -76 -102 0
100 -108 87 0
1 -64 -61 0
-107 -15 51 0
-23 -138 -2 0
100 5 76 0
-82 10 -30 0
-112 42 143 0
16 -76 -21 0
145 3 -35 0
102 -95 -62 0
57 -63 77 0
-113 105 22 0
14 -106 61 0
-54 66 125 0
-28 -138 14 0
-70 131 -29 0
20 -121 137 0
-68 55 -38 0
-143 -103 51 0
-44 -1 -137 0
135 130 9 0
143 -78 86 0
124 -127 106 0
44 -30 -141 0
-98 142 -121 0
146 -19 13 0
120 -97 93 0
-92 51 95 0
-6 -26 -25 0
-50 100 -147 0
-97 -139 37 0
-98 -57 -73 0
-46 -40 132 0
-27 93 89 0
1 13 16 0
33 142 -19 0
86 45 56 0
-134 87 95 0
111 -137 130 0
125 -124 -52 0
29 -102 -114 0
-86 -135 149 0
15 23 112 0
-59 102 103 0
-15 -68 -22 0
-124 54 -70 0
-107 -46 7 0
14 35 -103 0
88 116 -44 0
43 57 36 0
122 -8 -84 0
150 143 -64 0
101 -107 10 0
-135 82 -12 0
-80 -71 69 0
-116 75 -93 0
-132 65 43 0
103 65 -18 0
-148 -35 -150 0
-70 96 118 0
x 2 3 4 -8 -11 13 14 -20 21 -22 23 -24 27 28 -29 -30 -31 -32 33 36 37 -38 39 42 46 50 52 53 -55 56 -57 58 62 -66 67 -72 -74 -75 77 -78 79 -81 82 83 -88 -89 -92 93 94 -95 -97 99 100 -102 -105 108 109 112 -113 -116 117 119 120 122 -125 -126 127 130 -133 137 138 139 -140 -142 143 -144 145 0
x -3 6 -9 10 13 14 15 16 17 -18 19 21 22 -24 25 27 29 -33 34 35 -36 40 43 44 46 -47 -48 -49 53 -54 57 -58 -59 60 -61 62 63 -65 67 70 -71 -72 -73 76 77 -78 -83 84 -85 -86 87 -90 -91 94 -95 -96 -97 101 -102 103 -105 106 113 -118 119 124 126 -128 129 -130 -133 140 -141 144 -145 -149 0
x -4 7 -8 -11 14 21 -22 -26 28 29 -30 32 34 36 -39 40 41 -44 -46 -49 50 54 -58 59 61 62 63 -65 -67 69 -70 -72 76 77 79 -82 -83 84 -86 -88 -90 93 -94 -96 97 98 -102 103 -107 -108 109 110 114 -115 -117 -118 -120 -121 -123 125 127 -128 129 132 -133 135 -136 -138 141 -142 -143 -144 -145 -146 147 148 -150 0
x 1 2 5 7 -9 -12 -13 15 17 18 20 21 22 -23 -24 -25 26 -29 -30 -31 32 33 -34 -35 -37 38 40 43 -45 -46 -48 51 -52 54 -55 -56 58 -59 61 63 64 -65 -66 67 70 -71 73 74 -78 -79 -81 84 86 -90 92 93 -96 97 98 -100 104 -105 106 -109 -114 -116 117 122 123 -124 126 128 -131 132 135 136 -137 -141 145 149 0
x -1 -3 4 5 6 -7 10 -12 -13 15 -16 26 -29 -34 -35 40 -45 46 -47 -53 -54 55 56 58 59 65 -66 68 -69 70 -71 75 -78 -81 -82 84 85 -86 -87 89 94 -96 -98 100 -101 102 -104 108 109 -111 112 -113 -114 -120 121 123 -124 125 -126 127 128 -130 131 132 -137 138 -140 141 142 143 144 146 -147 148 -150 0
x -1 -2 4 5 7 12 -13 -14 19 -20 -21 -23 24 -26 31 -33 -34 -35 36 -37 -39 -40 41 44 45 -51 55 -57 -58 -59 -60 61 -62 -63 -64 67 -70 -74 80 -81 82 -85 86 89 -92 93 -94 95 -96 98 -100 102 -104 105 106 107 -109 -112 114 115 117 120 123 125 128 130 -135 138 -139 145 146 -147 0
x -4 -9 10 13 -14 -16 17 20 -24 -27 29 31 32 35 -38 41 43 50 52 -53 -54 55 56 59 60 -62 -64 -65 -66 68 -71 72 73 -76 -77 -78 81 -82 83 -86 87 -89 90 -93 96 -97 -100 -105 -107 -109 111 112 113 -114 116 117 -118 -121 -122 124 -125 126 130 133 135 139 141 143 148 -149 150 0
x 3 7 8 -9 -11 -13 14 -15 -17 -18 19 -20 -23 26 -30 -33 35 -36 -38 39 -40 -41 -46 47 -48 51 -52 53 54 55 56 57 -58 60 61 -64 65 69 73 -75 76 -77 -79 -80 81 -82 -83 84 86 -90 91 -93 -94 95 96 -97 -98 -100 -102 -104 105 106 -108 110 115 116 118 -119 -122 -123 -125 126 -127 -129 -130 132 135 136 -138 -140 141 -144 -148 -150 0
x 2 3 -4 5 6 -7 12 16 19 -20 -22 -23 -25 26 -27 30 33 -36 39 40 -41 43 44 47 49 50 -53 -54 56 -58 -59 -61 -65 66 67 68 -70 71 73 76 -78 -80 83 -85 87 -88 -94 -95 -97 98 100 101 103 104 107 108 -113 -115 116 -119 121 122 125 -126 -129 131 133 -134 136 -137 -138 -139 -141 142 143 -146 149 0
x -3 -5 7 9 -10 -11 13 -14 15 22 24 27 28 -29 -30 34 35 36 -38 40 -42 44 45 -47 48 52 55 -58 -59 61 -62 63 -65 -72 -73 -75 -76 -77 -80 -81 82 -83 -84 87 88 -89 90 91 -92 93 94 95 99 -100 -101 -103 108 109 110 114 116 120 -125 -127 134 135 136 -138 142 143 -144 146 -149 -150 0
x -1 -3 4 8 9 -12 13 14 15 -17 19 23 -24 26 -27 29 30 -31 32 36 -39 41 45 -46 -47 50 -52 53 55 -57 -61 -62 -64 -72 -73 75 77 -78 79 -87 88 90 -92 -94 -96 97 -98 -104 -106 107 -121 -123 -124 -126 -127 128 -133 -134 137 141 -143 -144 146 148 150 0
x -3 5 6 7 -8 -9 10 12 -13 15 -17 -18 19 20 21 23 24 -25 -26 28 29 31 32 -33 34 35 36 38 42 45 -47 49 -50 -51 54 59 -60 -61 -62 -65 -66 -67 -68 -69 -73 -78 85 -88 89 -91 95 -101 102 -103 -106 -107 108 -110 113 -114 -115 116 -118 119 -120 -121 122 -124 -127 128 130 -133 135 -136 137 143 -144 145 147 148 149 0
x -1 -3 -5 -6 9 13 -14 -17 -19 -20 -23 -26 27 -28 29 30 -31 32 -35 -36 37 38 41 -47 -50 -54 56 58 61 -62 -63 67 -72 75 -76 77 81 -82 83 -84 -86 88 -91 92 -93 -96 100 -102 -106 107 -109 -112 113 119 122 -124 -125 -127 -128 -132 133 -134 136 -142 143 -144 145 -146 149 0
x -2 4 -6 -9 11 12 17 18 -19 20 -24 -26 -28 37 -41 42 43 44 -45 -46 47 51 53 -56 57 -58 -63 -67 72 -75 -76 -77 78 -81 -83 -84 -86 87 -88 90 -93 94 95 97 -99 -100 -101 103 104 -106 -107 109 110 -111 -112 -113 -115 116 117 120 -121 124 -125 128 130 132 -135 -136 -138 -140 -141 145 -146 -148 149 0
x -3 4 7 -12 14 -16 -17 18 19 21 23 -24 26 28 29 30 -31 33 -34 35 40 -42 45 47 50 51 59 61 63 64 -67 -68 72 73 77 -78 -79 80 83 -84 -89 90 -92 -94 98 -102 105 109 110 -111 112 115 116 123 -125 126 127 128 -131 -132 -134 -135 138 139 140 -142 -144 -146 147 148 0
x -2 -6 -7 8 11 13 -14 -15 -16 19 -24 25 27 28 -29 32 -34 -35 36 37 38 -39 -42 -44 -47 -49 55 58 -60 61 -63 -65 67 69 73 -74 77 80 -81 82 -83 -89 90 -94 95 97 -99 104 105 108 109 110 112 115 -116 -117 120 -124 -125 -126 -128 -130 132 135 136 137 138 139 -140 -141 142 144 145 -146 149 150 0
x 4 -5 9 -11 -14 19 20 26 -28 -29 -31 -32 33 34 -37 -39 41 -43 -48 -50 52 -53 -54 -57 58 -60 -61 63 -64 69 70 71 -73 74 -75 76 -79 -80 83 91 -92 -93 95 96 -97 99 -106 107 -108 -109 111 112 -118 -119 120 121 -123 127 128 130 132 -133 134 -135 138 -139 140 -143 144 -147 -148 149 150 0
x 2 5 7 8 9 -10 -11 -13 -16 17 -18 19 20 -22 -29 30 32 33 -34 -35 -36 38 -39 -45 -46 48 51 -55 57 -58 -60 -61 63 65 -66 70 73 -76 77 78 79 -81 -82 83 84 -85 86 87 88 91 92 -94 -96 100 -102 103 106 -107 108 112 -113 114 -115 -116 117 -119 -120 -122 129 132 -134 -136 -137 141 -143 147 -148 149 0
x 2 3 -5 6 -10 12 13 15 16 18 -19 -21 23 -24 29 30 -32 -33 34 -37 43 -46 -47 49 -52 -53 -54 56 57 -59 -60 -66 -68 69 70 72 -73 -75 76 77 -78 79 -80 90 91 93 94 -95 99 100 -103 -104 105 108 -110 111 112 -113 118 119 120 123 124 127 -128 129 -131 132 133 135 139 -140 -143 -145 -148 150 0
x 2 3 -7 11 16 17 -18 21 23 26 -27 -28 29 30 -32 33 34 35 -36 38 -43 -44 -45 46 -47 52 56 -58 -59 -66 -68 69 72 -76 -77 -79 81 -82 83 84 -87 -88 89 91 -92 -95 96 -98 99 -100 -102 -104 -105 -106 108 109 112 113 115 -116 -118 -119 120 121 -122 -123 -124 125 126 -128 130 -136 -138 -139 141 -142 143 145 -149 150 0
x 2 4 5 -6 -7 14 16 -18 -19 -27 -29 -30 32 33 -35 36 37 -42 45 49 -50 51 53 -55 59 62 -65 68 69 71 72 77 -78 -79 -80 83 84 85 86 89 -91 -92 -94 95 98 101 104 -105 -107 110 -111 112 113 -114 119 122 -123 125 128 -129 -133 134 -135 136 -139 140 141 144 -145 148 0
x -5 -6 -8 13 14 -18 20 21 -26 -28 29 -30 31 32 -35 36 38 39 -42 -44 45 47 -48 -50 -52 53 58 -59 61 62 -63 69 -71 -73 75 -76 -79 80 81 -85 86 87 -91 -92 93 -95 96 -98 -103 -104 106 -108 -109 110 112 114 -115 118 -119 121 -124 126 -128 -130 132 134 -139 140 -143 -144 -145 -146 147 149 -150 0
x -5 9 10 15 -17 -18 21 22 24 -28 -29 32 33 -34 35 38 -39 -40 -41 44 -45 -46 -47 -51 -53 -57 -58 -60 61 63 64 66 -67 -69 -71 74 75 76 77 78 80 -90 -91 96 97 -98 -100 -104 105 -107 -109 -111 116 -117 -119 121 -122 -125 -127 129 131 -132 -133 134 -136 -144 147 149 -150 0
x -5 -6 7 -9 -10 13 -14 17 18 -20 -21 22 23 -25 -28 -29 30 -32 35 36 39 42 -44 45 -47 -49 51 -52 -55 -63 -64 65 -67 -70 71 72 73 74 75 79 -80 83 -84 -90 93 95 97 -98 -100 -103 106 107 -110 -111 -116 117 118 120 121 122 -124 -125 127 130 131 -136 138 -139 140 143 -146 147 150 0
x -5 -6 9 -10 -11 13 -16 -17 20 21 25 27 -30 33 37 -41 43 51 -53 54 -55 -57 -60 -61 62 -63 -66 -67 68 -71 -74 -75 76 79 84 86 87 -89 90 -91 -93 95 98 -99 -103 105 -106 -107 -108 113 114 117 118 120 122 123 -124 125 -127 -128 -129 130 -132 135 138 -139 141 -142 143 -144 -145 148 150 0
x 1 -4 5 -7 -9 10 12 13 18 -20 -21 22 24 26 28 31 -32 -33 -34 35 -38 39 40 41 42 45 -46 49 50 51 -53 -55 -58 63 65 -66 -68 69 -70 -72 -74 -75 76 77 78 -80 82 -84 87 89 91 -93 96 98 100 101 102 -103 104 -106 -107 -109 -112 -115 -117 -118 124 127 -129 130 -131 -132 -133 134 -135 137 138 144 -145 -150 0
x -1 2 3 -4 -5 6 9 11 -12 13 15 16 19 21 -22 24 25 26 -27 31 -32 33 -34 -36 -37 38 -42 -44 -47 -48 49 53 54 -55 -59 60 62 -63 -64 -65 67 68 69 75 -76 77 78 -79 -80 -81 82 -84 -91 95 -97 98 -100 -101 103 107 -108 109 112 -113 -118 -119 -121 122 -129 -136 -137 138 -142 143 147 -148 149 0
x -1 -2 5 7 -8 -11 -12 14 17 -21 22 -24 -26 -28 30 -31 34 -38 -40 42 -43 44 45 -49 -52 -53 -61 65 -66 -67 -68 72 -73 74 -77 -79 -81 -84 85 87 -93 -95 98 99 -100 101 104 107 108 109 110 -112 -113 -117 118 -120 121 126 127 128 129 -131 -132 -133 -134 -137 -138 139 -140 -141 -142 144 -146 0
x -5 8 -9 -14 18 -19 -20 -21 -22 23 -29 30 -34 -35 -39 41 44 45 -46 -48 -49 50 52 -57 58 -60 61 63 -68 70 72 73 -77 -78 -80 -81 -82 83 -85 -86 -88 -89 90 -92 -94 -95 96 98 99 -101 -104 -106 -107 -108 -110 111 -112 113 117 -119 -126 -127 131 -134 -135 -136 -140 141 -144 -146 0
x 4 -10 11 -12 13 15 16 17 22 26 -27 -28 -30 -32 34 35 36 38 -39 -42 -44 49 51 -53 -58 59 -63 65 -67 -70 -72 -73 -74 -81 83 -84 85 86 -87 88 89 91 -94 96 -98 -99 -103 106 -108 109 110 -111 112 114 -115 117 118 121 123 -124 125 127 130 132 -133 136 137 138 139 140 -141 -142 -146 147 -149 0
x 5 -6 -7 10 -12 -18 -22 -23 26 -27 30 31 -33 -36 -37 -38 40 41 -42 -44 45 46 -47 -50 -52 -54 57 58 -60 61 62 -63 64 -65 66 -68 69 -72 74 78 -79 83 -86 87 -88 89 -91 -92 -93 96 -98 99 101 106 107 -109 111 113 117 -118 -119 -120 -122 -124 -128 -131 -132 -135 137 138 -140 -143 -144 -146 -149 0
x -3 4 5 6 -7 -8 13 17 19 20 22 23 24 -26 -28 -30 31 33 34 43 -45 -46 -47 48 49 -52 53 -56 57 58 -59 67 -70 -72 73 -76 -80 -83 84 87 -93 94 -97 -99 100 101 106 -109 113 115 116 -119 -120 -121 -124 -126 129 -131 132 -137 139 140 141 -143 -144 -145 -146 -147 -149 -150 0
x -1 2 -4 -5 -8 9 -10 -11 12 -13 15 -17 -19 -20 -21 -27 28 -30 -31 34 35 36 37 -40 -42 -44 45 -47 -48 49 -50 -52 56 -57 59 66 -69 -70 -72 -77 81 82 84 85 -86 88 89 91 93 97 -99 101 -102 -106 -108 -109 -111 -113 114 115 -116 -117 118 120 125 -127 -128 -130 133 -134 138 -139 -144 146 -149 -150 0
x 1 -2 -4 5 -8 -14 17 -18 20 21 -22 23 -24 27 -28 29 30 -31 -33 -35 -37 -39 -40 41 43 -44 -46 48 49 -51 -53 -59 -64 -65 66 67 -72 -73 -77 78 -80 81 84 -87 -90 91 -92 -93 -95 97 98 100 101 -102 103 -107 108 110 -116 117 119 120 -122 127 128 130 -134 -136 -137 -140 -142 144 149 -150 0
x 4 -6 -8 -9 -10 13 15 17 -18 -19 21 -22 24 -27 31 32 33 34 35 36 39 -40 41 42 -45 46 -48 50 -52 -58 -59 62 63 65 -66 -67 -69 -72 74 79 80 81 82 -83 87 93 -94 -95 -97 -98 99 101 102 103 104 -106 -107 109 -111 -112 -113 -114 -116 -117 -118 119 121 -123 -126 -132 -133 135 136 139 -140 -142 -143 -147 -148 149 0
x 2 -4 -8 -9 -10 -11 14 15 -18 -19 20 22 -23 26 27 29 -30 32 -35 -39 41 -42 -48 52 -53 55 58 -61 -63 64 -65 -67 -68 69 -72 -74 77 79 80 -81 82 -83 -84 -85 86 -88 -89 -95 96 -102 -106 107 108 -111 -112 114 123 -125 -127 -128 130 -131 133 134 -137 -138 140 -142 -143 -145 146 -147 148 0
x 1 3 7 -9 10 -11 16 -18 -20 21 -23 24 27 28 29 30 -31 -33 -39 41 -42 43 47 -48 -49 -51 53 -55 57 58 -60 61 64 65 68 69 70 -71 72 -73 75 -76 77 -78 79 -80 -81 82 83 -84 -85 -86 -93 -94 -98 -100 101 -102 -103 107 108 112 -114 -117 -118 -120 124 125 127 128 -129 130 -131 -134 -136 -139 141 143 0
x -2 3 -4 5 -8 -9 11 -12 -15 16 -17 18 20 23 24 32 34 -36 -37 -38 41 44 49 -52 -59 60 -61 62 63 -64 66 -68 -69 -70 72 74 -76 -77 78 -79 84 -85 86 89 90 -91 -93 94 97 -98 -101 -102 -104 -106 -108 -111 112 116 -117 -118 119 121 122 -123 124 125 129 130 -134 -137 -138 -147 -148 149 150 0
x 3 6 13 14 -17 18 -21 -22 23 26 -28 31 32 34 -37 39 -41 42 -43 -45 46 -47 -49 50 -52 55 -56 62 -64 65 67 -74 -82 87 -88 91 -93 94 -97 -99 100 101 -104 -105 -106 -107 -111 112 -116 118 -120 122 124 -126 127 -129 -132 -133 -135 -137 -140 141 144 145 0
x 1 2 -4 5 6 -7 8 -12 -14 -15 20 22 -23 24 27 28 29 -36 -39 41 42 45 -47 -51 54 -55 -58 -60 -61 -65 67 68 -71 -72 75 76 -77 78 79 -81 -82 83 -84 87 90 91 92 -93 94 96 97 99 100 -103 105 108 109 -112 -116 119 -121 -122 -125 126 130 -131 -132 -134 136 139 140 -141 142 144 -145 146 147 148 0
x 2 -9 10 -12 -14 -20 -22 -27 -29 31 -32 -33 34 -36 37 -38 -42 44 47 48 -49 -52 -54 55 -57 60 -61 -62 -64 -65 67 -68 -69 70 -73 74 75 -76 77 79 -80 -83 85 86 -87 -90 91 -92 93 -94 95 99 100 101 102 104 -105 109 110 -111 -112 114 115 -117 -118 -123 124 -125 126 129 -131 -132 -135 -136 -137 -142 -143 144 145 146 148 -150 0
x -1 -2 3 8 -9 10 -11 -12 13 15 16 17 18 -19 23 24 26 -27 -28 -31 33 -37 -38 43 48 -49 -52 -53 54 -57 -60 61 64 65 67 -70 -72 -73 75 79 -83 -84 -86 -92 93 -94 -96 98 -99 100 101 102 -105 106 112 -114 115 -118 -119 -123 -124 125 -126 128 -130 -131 132 135 140 142 -143 146 -148 -149 0
x 1 -2 -4 -6 -8 -9 11 14 16 18 -21 -23 -24 29 30 31 32 33 38 39 40 44 45 -46 47 -48 56 -57 61 62 63 -68 -69 -76 79 -80 -82 84 -86 88 91 -92 95 -99 -100 -102 -103 105 106 -107 -108 111 -112 113 114 115 119 120 121 -122 125 -126 127 129 -130 -131 -132 134 137 -144 146 148 150 0
x -3 -9 11 12 15 -16 22 -23 25 27 -28 30 -33 -34 35 36 38 -39 40 41 42 -45 46 49 50 52 54 57 -58 62 63 66 67 -70 -71 -75 78 82 87 -88 91 94 101 -104 107 -109 110 117 -118 121 -122 123 -124 -126 -127 129 130 -131 -132 133 -134 135 -137 -139 -142 143 144 148 -150 0
x 1 -2 4 5 -7 -8 10 14 16 18 20 -23 -24 26 -27 -34 35 -39 40 46 -48 -51 -52 -53 58 59 61 62 -64 -65 -66 68 -70 -74 -76 78 79 83 84 85 -86 88 89 91 92 -94 95 -98 -99 101 -102 104 -105 -106 107 109 111 113 114 115 -119 -120 -121 123 -124 126 134 -135 -137 -138 139 -140 -141 146 -147 150 0
x -1 -3 4 10 -11 -13 14 -15 18 -19 -20 -22 -24 -26 27 -28 33 -34 35 -37 38 -39 40 41 -43 45 -49 -52 53 54 -56 -57 58 -59 -60 61 -63 -65 -66 67 -71 -74 -81 82 86 87 -92 94 96 97 98 -99 100 101 -106 -111 115 116 119 -125 -126 -128 134 -135 -137 138 -139 -143 144 147 -148 -149 0
x -2 -4 5 -7 -10 12 13 14 18 -19 -20 -21 23 24 -25 -28 -29 -30 32 34 37 -38 42 43 -49 -50 -53 55 56 59 64 66 67 68 69 71 72 -75 78 81 -82 83 -84 85 -88 90 -91 92 -93 97 98 -100 102 105 110 -111 -112 113 114 123 124 -126 128 -129 131 -132 -133 134 135 -136 -138 143 144 -150 0
x 1 4 5 8 9 10 15 16 -19 20 -22 24 -27 28 -29 31 -32 33 34 -37 -42 43 -45 -46 47 -49 -54 -55 -56 -57 58 -60 64 -65 -67 69 -71 -72 73 -74 -77 80 81 -82 -83 -87 -99 101 104 -105 108 -109 110 -114 -115 -116 117 123 -125 -127 -131 -134 135 137 -139 -140 -141 -143 -145 148 149 -150 0
x -1 5 -6 7 8 -11 12 14 16 -17 19 -22 25 27 29 -30 34 -35 38 39 -40 41 42 43 -45 47 -50 52 -54 -56 -58 -59 -60 61 -62 -73 75 77 81 83 -85 -86 -88 -90 -91 93 -95 99 -102 104 -106 -109 110 113 115 -116 117 118 119 121 122 -123 124 -126 127 131 132 135 136 -137 -143 144 -145 148 -149 150 0
x -1 -2 3 5 8 9 -10 -11 -12 14 -15 -16 -19 23 -31 -32 34 36 -38 -39 -40 -41 43 44 46 -48 51 53 -55 -56 -59 61 -62 63 -68 70 -71 -74 75 -77 -78 79 -82 -85 -86 -87 -93 97 -98 102 103 109 110 112 -114 -116 118 120 -121 122 124 126 -127 129 -130 -133 135 136 137 139 -140 141 144 -146 -147 0
x 4 6 -7 -9 10 -14 -15 18 -19 -21 22 26 -27 28 29 -30 -34 -36 37 -39 40 41 42 45 -46 48 50 -52 -55 56 57 61 62 63 -66 68 -71 -74 -76 -78 79 81 83 84 85 89 -91 -100 -101 -103 104 -106 -108 111 113 -114 116 118 121 -123 129 130 132 -133 136 137 -138 -140 -141 -142 143 -144 -146 150 0
x -2 4 -5 6 9 12 -19 -20 22 -23 24 25 28 31 32 34 35 -37 39 40 43 44 -45 -47 -54 -55 58 -59 60 62 63 67 -69 71 72 73 -75 -76 -78 79 -81 -82 -83 84 -85 86 89 -91 94 -103 -104 -105 -106 107 -108 -112 -113 114 -116 -117 -127 -129 -130 -131 -132 133 134 135 140 -142 -143 -146 -147 -150 0
x -1 2 -5 11 14 -18 23 28 -29 30 -33 34 35 -36 -37 -39 40 45 49 -53 -57 -61 -65 -66 68 -69 70 -71 73 74 -76 77 -80 81 -90 92 93 -94 -97 -99 -103 106 108 110 -111 -115 117 -119 121 -124 125 126 -127 -129 133 134 -140 141 143 -146 -147 148 -150 0
x 2 3 -9 -11 13 14 16 -19 -21 -24 -26 -27 30 -31 32 34 -35 -36 37 -38 -39 -44 46 -47 49 51 -54 55 57 -59 -61 63 65 -69 -74 -75 78 -81 84 -85 -86 -87 -88 89 -90 -96 -97 -99 101 104 105 108 110 -111 112 114 -115 118 119 -123 124 -125 127 -128 130 131 -132 133 138 -139 -143 -144 -148 0
x -3 -5 7 13 15 -16 20 -21 -24 26 29 32 34 35 38 -41 -44 46 -47 -49 55 56 -59 -60 -61 -62 -63 65 -67 -68 69 -72 -74 76 78 79 -80 -82 83 -84 85 86 87 -89 -93 95 -96 -97 100 103 104 -105 109 110 111 -115 117 -122 123 125 129 130 134 135 140 142 145 147 149 0
x -1 -4 6 7 10 -20 22 24 26 -27 -28 -30 31 34 -35 37 -40 43 -44 47 48 51 57 58 -59 -60 -61 62 -63 -64 65 -69 -74 -77 79 -80 -81 83 84 86 -87 89 90 94 98 -100 101 -102 -107 -110 111 114 122 -123 124 -126 130 132 -135 -136 139 140 142 145 -147 148 -149 150 0
x 6 -7 -8 11 -12 -13 -14 15 17 -19 -20 -21 24 -25 -29 30 -32 -34 37 39 -40 44 46 -49 -50 52 54 56 57 59 -64 -65 -67 73 74 77 -78 -85 -86 87 -88 -89 -90 -91 -92 -97 -98 -99 -100 102 107 -111 -112 113 -115 116 -118 119 122 -123 125 126 128 132 136 -143 -145 146 -147 150 0
x 1 -4 5 -8 10 13 -14 -15 17 -18 19 21 -25 28 -32 -34 37 -38 39 40 47 -48 -49 51 52 -54 55 56 -62 63 -65 67 69 -70 71 -72 -76 81 -82 -87 88 92 -95 101 -103 -104 109 110 -111 112 114 -115 -116 -117 118 120 -122 124 -125 -126 -127 129 131 -135 139 -140 -141 -146 147 -148 149 0
x -2 5 7 -8 -11 -14 17 -19 -20 -22 23 -27 -28 -34 38 -39 -40 42 43 44 45 49 50 -52 57 -59 -60 61 -62 -64 66 67 -68 69 70 -71 -73 76 -81 -86 -91 -92 -94 -95 -98 -103 -104 106 108 109 -111 117 -118 -119 -121 124 125 127 -134 136 138 -141 143 146 -147 -148 -150 0
x -1 3 -4 -5 -6 8 -9 10 -11 -13 -19 -21 24 -27 -28 -29 30 -34 35 36 -37 -38 39 40 41 44 -49 51 -56 57 -58 -59 -61 62 -64 -65 -67 69 71 73 77 -78 -80 -82 -84 86 -87 -88 90 93 -94 -95 100 101 -102 -106 107 108 109 110 111 -114 -115 -118 -119 122 124 130 131 132 -135 136 137 138 -139 140 143 144 -145 -147 149 -150 0
